data/lp_files/pEFS/67_6.lp
\ Model foo
\ LP format - for model browsing. Use MPS format to capture full model detail.
Minimize
  z
Subject To
 allocateEach[1]: x[1,1] + x[2,1] + x[3,1] + x[4,1] = 1
 allocateEach[2]: x[1,2] + x[2,2] + x[3,2] + x[4,2] = 1
 allocateEach[3]: x[1,3] + x[2,3] + x[3,3] + x[4,3] = 1
 allocateEach[4]: x[1,4] + x[2,4] + x[3,4] + x[4,4] = 1
 allocateEach[5]: x[1,5] + x[2,5] + x[3,5] + x[4,5] = 1
 allocateEach[6]: x[1,6] + x[2,6] + x[3,6] + x[4,6] = 1
 allocateEach[7]: x[1,7] + x[2,7] + x[3,7] + x[4,7] = 1
 allocateAllCash: cashProportion[1] + cashProportion[2] + cashProportion[3]
   + cashProportion[4] = 1
 findWorstP[1,2]: z + 0.0777756173439627 cashProportion[1]
   - 0.0777756173439627 cashProportion[2] + 0.1814310713591289 x[1,1]
   + 0.0767450904141552 x[1,2] + 0.1811005249854171 x[1,3]
   + 0.00451098580594983 x[1,4] + 0.1621038304491542 x[1,5]
   + 0.1887808671981334 x[1,6] + 0.1275520124440988 x[1,7]
   - 0.1814310713591289 x[2,1] - 0.0767450904141552 x[2,2]
   - 0.1811005249854171 x[2,3] - 0.00451098580594983 x[2,4]
   - 0.1621038304491542 x[2,5] - 0.1887808671981334 x[2,6]
   - 0.1275520124440988 x[2,7] >= 0
 findWorstP[1,3]: z + 0.0777756173439627 cashProportion[1]
   - 0.0777756173439627 cashProportion[3] + 0.1814310713591289 x[1,1]
   + 0.0767450904141552 x[1,2] + 0.1811005249854171 x[1,3]
   + 0.00451098580594983 x[1,4] + 0.1621038304491542 x[1,5]
   + 0.1887808671981334 x[1,6] + 0.1275520124440988 x[1,7]
   - 0.1814310713591289 x[3,1] - 0.0767450904141552 x[3,2]
   - 0.1811005249854171 x[3,3] - 0.00451098580594983 x[3,4]
   - 0.1621038304491542 x[3,5] - 0.1887808671981334 x[3,6]
   - 0.1275520124440988 x[3,7] >= 0
 findWorstP[1,4]: z + 0.0777756173439627 cashProportion[1]
   - 0.0777756173439627 cashProportion[4] + 0.1814310713591289 x[1,1]
   + 0.0767450904141552 x[1,2] + 0.1811005249854171 x[1,3]
   + 0.00451098580594983 x[1,4] + 0.1621038304491542 x[1,5]
   + 0.1887808671981334 x[1,6] + 0.1275520124440988 x[1,7]
   - 0.1814310713591289 x[4,1] - 0.0767450904141552 x[4,2]
   - 0.1811005249854171 x[4,3] - 0.00451098580594983 x[4,4]
   - 0.1621038304491542 x[4,5] - 0.1887808671981334 x[4,6]
   - 0.1275520124440988 x[4,7] >= 0
 findWorstP[2,1]: z - 0.0791483636075824 cashProportion[1]
   + 0.0791483636075824 cashProportion[2] - 0.1577426886699117 x[1,1]
   - 0.0614389172503858 x[1,2] - 0.1493331750366061 x[1,3]
   - 0.146503621037635 x[1,4] - 0.1244212275911196 x[1,5]
   - 0.095710158692469 x[1,6] - 0.1857018481142902 x[1,7]
   + 0.1577426886699117 x[2,1] + 0.0614389172503858 x[2,2]
   + 0.1493331750366061 x[2,3] + 0.146503621037635 x[2,4]
   + 0.1244212275911196 x[2,5] + 0.095710158692469 x[2,6]
   + 0.1857018481142902 x[2,7] >= 0
 findWorstP[2,3]: z + 0.0791483636075824 cashProportion[2]
   - 0.0791483636075824 cashProportion[3] + 0.1577426886699117 x[2,1]
   + 0.0614389172503858 x[2,2] + 0.1493331750366061 x[2,3]
   + 0.146503621037635 x[2,4] + 0.1244212275911196 x[2,5]
   + 0.095710158692469 x[2,6] + 0.1857018481142902 x[2,7]
   - 0.1577426886699117 x[3,1] - 0.0614389172503858 x[3,2]
   - 0.1493331750366061 x[3,3] - 0.146503621037635 x[3,4]
   - 0.1244212275911196 x[3,5] - 0.095710158692469 x[3,6]
   - 0.1857018481142902 x[3,7] >= 0
 findWorstP[2,4]: z + 0.0791483636075824 cashProportion[2]
   - 0.0791483636075824 cashProportion[4] + 0.1577426886699117 x[2,1]
   + 0.0614389172503858 x[2,2] + 0.1493331750366061 x[2,3]
   + 0.146503621037635 x[2,4] + 0.1244212275911196 x[2,5]
   + 0.095710158692469 x[2,6] + 0.1857018481142902 x[2,7]
   - 0.1577426886699117 x[4,1] - 0.0614389172503858 x[4,2]
   - 0.1493331750366061 x[4,3] - 0.146503621037635 x[4,4]
   - 0.1244212275911196 x[4,5] - 0.095710158692469 x[4,6]
   - 0.1857018481142902 x[4,7] >= 0
 findWorstP[3,1]: z - 0.1739811230481493 cashProportion[1]
   + 0.1739811230481493 cashProportion[3] - 0.2508372841546692 x[1,1]
   - 0.0333173850637206 x[1,2] - 0.00504545256839633 x[1,3]
   - 0.2723674481318776 x[1,4] - 0.1073463529207081 x[1,5]
   - 0.0094384759253621 x[1,6] - 0.1476664781871167 x[1,7]
   + 0.2508372841546692 x[3,1] + 0.0333173850637206 x[3,2]
   + 0.00504545256839633 x[3,3] + 0.2723674481318776 x[3,4]
   + 0.1073463529207081 x[3,5] + 0.0094384759253621 x[3,6]
   + 0.1476664781871167 x[3,7] >= 0
 findWorstP[3,2]: z - 0.1739811230481493 cashProportion[2]
   + 0.1739811230481493 cashProportion[3] - 0.2508372841546692 x[2,1]
   - 0.0333173850637206 x[2,2] - 0.00504545256839633 x[2,3]
   - 0.2723674481318776 x[2,4] - 0.1073463529207081 x[2,5]
   - 0.0094384759253621 x[2,6] - 0.1476664781871167 x[2,7]
   + 0.2508372841546692 x[3,1] + 0.0333173850637206 x[3,2]
   + 0.00504545256839633 x[3,3] + 0.2723674481318776 x[3,4]
   + 0.1073463529207081 x[3,5] + 0.0094384759253621 x[3,6]
   + 0.1476664781871167 x[3,7] >= 0
 findWorstP[3,4]: z + 0.1739811230481493 cashProportion[3]
   - 0.1739811230481493 cashProportion[4] + 0.2508372841546692 x[3,1]
   + 0.0333173850637206 x[3,2] + 0.00504545256839633 x[3,3]
   + 0.2723674481318776 x[3,4] + 0.1073463529207081 x[3,5]
   + 0.0094384759253621 x[3,6] + 0.1476664781871167 x[3,7]
   - 0.2508372841546692 x[4,1] - 0.0333173850637206 x[4,2]
   - 0.00504545256839633 x[4,3] - 0.2723674481318776 x[4,4]
   - 0.1073463529207081 x[4,5] - 0.0094384759253621 x[4,6]
   - 0.1476664781871167 x[4,7] >= 0
 findWorstP[4,1]: z - 0.0923211854040206 cashProportion[1]
   + 0.0923211854040206 cashProportion[4] - 0.0254344865788077 x[1,1]
   - 0.224178918457313 x[1,2] - 0.1753640916749371 x[1,3]
   - 0.1065848085489418 x[1,4] - 0.1071387356613659 x[1,5]
   - 0.1755718143420962 x[1,6] - 0.0934059593325178 x[1,7]
   + 0.0254344865788077 x[4,1] + 0.224178918457313 x[4,2]
   + 0.1753640916749371 x[4,3] + 0.1065848085489418 x[4,4]
   + 0.1071387356613659 x[4,5] + 0.1755718143420962 x[4,6]
   + 0.0934059593325178 x[4,7] >= 0
 findWorstP[4,2]: z - 0.0923211854040206 cashProportion[2]
   + 0.0923211854040206 cashProportion[4] - 0.0254344865788077 x[2,1]
   - 0.224178918457313 x[2,2] - 0.1753640916749371 x[2,3]
   - 0.1065848085489418 x[2,4] - 0.1071387356613659 x[2,5]
   - 0.1755718143420962 x[2,6] - 0.0934059593325178 x[2,7]
   + 0.0254344865788077 x[4,1] + 0.224178918457313 x[4,2]
   + 0.1753640916749371 x[4,3] + 0.1065848085489418 x[4,4]
   + 0.1071387356613659 x[4,5] + 0.1755718143420962 x[4,6]
   + 0.0934059593325178 x[4,7] >= 0
 findWorstP[4,3]: z - 0.0923211854040206 cashProportion[3]
   + 0.0923211854040206 cashProportion[4] - 0.0254344865788077 x[3,1]
   - 0.224178918457313 x[3,2] - 0.1753640916749371 x[3,3]
   - 0.1065848085489418 x[3,4] - 0.1071387356613659 x[3,5]
   - 0.1755718143420962 x[3,6] - 0.0934059593325178 x[3,7]
   + 0.0254344865788077 x[4,1] + 0.224178918457313 x[4,2]
   + 0.1753640916749371 x[4,3] + 0.1065848085489418 x[4,4]
   + 0.1071387356613659 x[4,5] + 0.1755718143420962 x[4,6]
   + 0.0934059593325178 x[4,7] >= 0
Bounds
 z <= 1
 -infinity <= cashProportion[1] <= 1
 -infinity <= cashProportion[2] <= 1
 -infinity <= cashProportion[3] <= 1
 -infinity <= cashProportion[4] <= 1
Binaries
 x[1,1] x[1,2] x[1,3] x[1,4] x[1,5] x[1,6] x[1,7] x[2,1] x[2,2] x[2,3]
 x[2,4] x[2,5] x[2,6] x[2,7] x[3,1] x[3,2] x[3,3] x[3,4] x[3,5] x[3,6]
 x[3,7] x[4,1] x[4,2] x[4,3] x[4,4] x[4,5] x[4,6] x[4,7]
End
