data/mps_files/q3/67_6.mps
NAME foo
ROWS
 N  OBJ
 E  allocateEach[1]
 E  allocateEach[2]
 E  allocateEach[3]
 E  allocateEach[4]
 E  allocateEach[5]
 E  allocateEach[6]
 E  allocateEach[7]
 E  allocateAllCash
 G  findWorstP[1,2]
 G  findWorstP[1,3]
 G  findWorstP[1,4]
 G  findWorstP[2,1]
 G  findWorstP[2,3]
 G  findWorstP[2,4]
 G  findWorstP[3,1]
 G  findWorstP[3,2]
 G  findWorstP[3,4]
 G  findWorstP[4,1]
 G  findWorstP[4,2]
 G  findWorstP[4,3]
COLUMNS
    z         OBJ       1
    z         findWorstP[1,2]  1
    z         findWorstP[1,3]  1
    z         findWorstP[1,4]  1
    z         findWorstP[2,1]  1
    z         findWorstP[2,3]  1
    z         findWorstP[2,4]  1
    z         findWorstP[3,1]  1
    z         findWorstP[3,2]  1
    z         findWorstP[3,4]  1
    z         findWorstP[4,1]  1
    z         findWorstP[4,2]  1
    z         findWorstP[4,3]  1
    cashProportion[1]  allocateAllCash  1
    cashProportion[1]  findWorstP[1,2]  7.7775617343962669e-02
    cashProportion[1]  findWorstP[1,3]  7.7775617343962669e-02
    cashProportion[1]  findWorstP[1,4]  7.7775617343962669e-02
    cashProportion[1]  findWorstP[2,1]  -7.9148363607582414e-02
    cashProportion[1]  findWorstP[3,1]  -1.7398112304814928e-01
    cashProportion[1]  findWorstP[4,1]  -0.0923211854040206
    cashProportion[2]  allocateAllCash  1
    cashProportion[2]  findWorstP[1,2]  -7.7775617343962669e-02
    cashProportion[2]  findWorstP[2,1]  7.9148363607582414e-02
    cashProportion[2]  findWorstP[2,3]  7.9148363607582414e-02
    cashProportion[2]  findWorstP[2,4]  7.9148363607582414e-02
    cashProportion[2]  findWorstP[3,2]  -1.7398112304814928e-01
    cashProportion[2]  findWorstP[4,2]  -0.0923211854040206
    cashProportion[3]  allocateAllCash  1
    cashProportion[3]  findWorstP[1,3]  -7.7775617343962669e-02
    cashProportion[3]  findWorstP[2,3]  -7.9148363607582414e-02
    cashProportion[3]  findWorstP[3,1]  1.7398112304814928e-01
    cashProportion[3]  findWorstP[3,2]  1.7398112304814928e-01
    cashProportion[3]  findWorstP[3,4]  1.7398112304814928e-01
    cashProportion[3]  findWorstP[4,3]  -0.0923211854040206
    cashProportion[4]  allocateAllCash  1
    cashProportion[4]  findWorstP[1,4]  -7.7775617343962669e-02
    cashProportion[4]  findWorstP[2,4]  -7.9148363607582414e-02
    cashProportion[4]  findWorstP[3,4]  -1.7398112304814928e-01
    cashProportion[4]  findWorstP[4,1]  0.0923211854040206
    cashProportion[4]  findWorstP[4,2]  0.0923211854040206
    cashProportion[4]  findWorstP[4,3]  0.0923211854040206
    MARKER    'MARKER'                 'INTORG'
    x[1,1]    allocateEach[1]  1
    x[1,1]    findWorstP[1,2]  1.8143107135912892e-01
    x[1,1]    findWorstP[1,3]  1.8143107135912892e-01
    x[1,1]    findWorstP[1,4]  1.8143107135912892e-01
    x[1,1]    findWorstP[2,1]  -1.5774268866991173e-01
    x[1,1]    findWorstP[3,1]  -2.5083728415466916e-01
    x[1,1]    findWorstP[4,1]  -2.5434486578807675e-02
    x[1,2]    allocateEach[2]  1
    x[1,2]    findWorstP[1,2]  7.6745090414155157e-02
    x[1,2]    findWorstP[1,3]  7.6745090414155157e-02
    x[1,2]    findWorstP[1,4]  7.6745090414155157e-02
    x[1,2]    findWorstP[2,1]  -6.1438917250385840e-02
    x[1,2]    findWorstP[3,1]  -3.3317385063720582e-02
    x[1,2]    findWorstP[4,1]  -0.224178918457313
    x[1,3]    allocateEach[3]  1
    x[1,3]    findWorstP[1,2]  1.8110052498541707e-01
    x[1,3]    findWorstP[1,3]  1.8110052498541707e-01
    x[1,3]    findWorstP[1,4]  1.8110052498541707e-01
    x[1,3]    findWorstP[2,1]  -1.4933317503660612e-01
    x[1,3]    findWorstP[3,1]  -5.0454525683963280e-03
    x[1,3]    findWorstP[4,1]  -1.7536409167493711e-01
    x[1,4]    allocateEach[4]  1
    x[1,4]    findWorstP[1,2]  4.5109858059498341e-03
    x[1,4]    findWorstP[1,3]  4.5109858059498341e-03
    x[1,4]    findWorstP[1,4]  4.5109858059498341e-03
    x[1,4]    findWorstP[2,1]  -1.4650362103763503e-01
    x[1,4]    findWorstP[3,1]  -2.7236744813187763e-01
    x[1,4]    findWorstP[4,1]  -1.0658480854894177e-01
    x[1,5]    allocateEach[5]  1
    x[1,5]    findWorstP[1,2]  1.6210383044915419e-01
    x[1,5]    findWorstP[1,3]  1.6210383044915419e-01
    x[1,5]    findWorstP[1,4]  1.6210383044915419e-01
    x[1,5]    findWorstP[2,1]  -1.2442122759111955e-01
    x[1,5]    findWorstP[3,1]  -1.0734635292070809e-01
    x[1,5]    findWorstP[4,1]  -1.0713873566136589e-01
    x[1,6]    allocateEach[6]  1
    x[1,6]    findWorstP[1,2]  1.8878086719813339e-01
    x[1,6]    findWorstP[1,3]  1.8878086719813339e-01
    x[1,6]    findWorstP[1,4]  1.8878086719813339e-01
    x[1,6]    findWorstP[2,1]  -9.5710158692469030e-02
    x[1,6]    findWorstP[3,1]  -9.4384759253620977e-03
    x[1,6]    findWorstP[4,1]  -1.7557181434209618e-01
    x[1,7]    allocateEach[7]  1
    x[1,7]    findWorstP[1,2]  1.2755201244409878e-01
    x[1,7]    findWorstP[1,3]  1.2755201244409878e-01
    x[1,7]    findWorstP[1,4]  1.2755201244409878e-01
    x[1,7]    findWorstP[2,1]  -1.8570184811429022e-01
    x[1,7]    findWorstP[3,1]  -1.4766647818711670e-01
    x[1,7]    findWorstP[4,1]  -9.3405959332517829e-02
    x[2,1]    allocateEach[1]  1
    x[2,1]    findWorstP[1,2]  -1.8143107135912892e-01
    x[2,1]    findWorstP[2,1]  1.5774268866991173e-01
    x[2,1]    findWorstP[2,3]  1.5774268866991173e-01
    x[2,1]    findWorstP[2,4]  1.5774268866991173e-01
    x[2,1]    findWorstP[3,2]  -2.5083728415466916e-01
    x[2,1]    findWorstP[4,2]  -2.5434486578807675e-02
    x[2,2]    allocateEach[2]  1
    x[2,2]    findWorstP[1,2]  -7.6745090414155157e-02
    x[2,2]    findWorstP[2,1]  6.1438917250385840e-02
    x[2,2]    findWorstP[2,3]  6.1438917250385840e-02
    x[2,2]    findWorstP[2,4]  6.1438917250385840e-02
    x[2,2]    findWorstP[3,2]  -3.3317385063720582e-02
    x[2,2]    findWorstP[4,2]  -0.224178918457313
    x[2,3]    allocateEach[3]  1
    x[2,3]    findWorstP[1,2]  -1.8110052498541707e-01
    x[2,3]    findWorstP[2,1]  1.4933317503660612e-01
    x[2,3]    findWorstP[2,3]  1.4933317503660612e-01
    x[2,3]    findWorstP[2,4]  1.4933317503660612e-01
    x[2,3]    findWorstP[3,2]  -5.0454525683963280e-03
    x[2,3]    findWorstP[4,2]  -1.7536409167493711e-01
    x[2,4]    allocateEach[4]  1
    x[2,4]    findWorstP[1,2]  -4.5109858059498341e-03
    x[2,4]    findWorstP[2,1]  1.4650362103763503e-01
    x[2,4]    findWorstP[2,3]  1.4650362103763503e-01
    x[2,4]    findWorstP[2,4]  1.4650362103763503e-01
    x[2,4]    findWorstP[3,2]  -2.7236744813187763e-01
    x[2,4]    findWorstP[4,2]  -1.0658480854894177e-01
    x[2,5]    allocateEach[5]  1
    x[2,5]    findWorstP[1,2]  -1.6210383044915419e-01
    x[2,5]    findWorstP[2,1]  1.2442122759111955e-01
    x[2,5]    findWorstP[2,3]  1.2442122759111955e-01
    x[2,5]    findWorstP[2,4]  1.2442122759111955e-01
    x[2,5]    findWorstP[3,2]  -1.0734635292070809e-01
    x[2,5]    findWorstP[4,2]  -1.0713873566136589e-01
    x[2,6]    allocateEach[6]  1
    x[2,6]    findWorstP[1,2]  -1.8878086719813339e-01
    x[2,6]    findWorstP[2,1]  9.5710158692469030e-02
    x[2,6]    findWorstP[2,3]  9.5710158692469030e-02
    x[2,6]    findWorstP[2,4]  9.5710158692469030e-02
    x[2,6]    findWorstP[3,2]  -9.4384759253620977e-03
    x[2,6]    findWorstP[4,2]  -1.7557181434209618e-01
    x[2,7]    allocateEach[7]  1
    x[2,7]    findWorstP[1,2]  -1.2755201244409878e-01
    x[2,7]    findWorstP[2,1]  1.8570184811429022e-01
    x[2,7]    findWorstP[2,3]  1.8570184811429022e-01
    x[2,7]    findWorstP[2,4]  1.8570184811429022e-01
    x[2,7]    findWorstP[3,2]  -1.4766647818711670e-01
    x[2,7]    findWorstP[4,2]  -9.3405959332517829e-02
    x[3,1]    allocateEach[1]  1
    x[3,1]    findWorstP[1,3]  -1.8143107135912892e-01
    x[3,1]    findWorstP[2,3]  -1.5774268866991173e-01
    x[3,1]    findWorstP[3,1]  2.5083728415466916e-01
    x[3,1]    findWorstP[3,2]  2.5083728415466916e-01
    x[3,1]    findWorstP[3,4]  2.5083728415466916e-01
    x[3,1]    findWorstP[4,3]  -2.5434486578807675e-02
    x[3,2]    allocateEach[2]  1
    x[3,2]    findWorstP[1,3]  -7.6745090414155157e-02
    x[3,2]    findWorstP[2,3]  -6.1438917250385840e-02
    x[3,2]    findWorstP[3,1]  3.3317385063720582e-02
    x[3,2]    findWorstP[3,2]  3.3317385063720582e-02
    x[3,2]    findWorstP[3,4]  3.3317385063720582e-02
    x[3,2]    findWorstP[4,3]  -0.224178918457313
    x[3,3]    allocateEach[3]  1
    x[3,3]    findWorstP[1,3]  -1.8110052498541707e-01
    x[3,3]    findWorstP[2,3]  -1.4933317503660612e-01
    x[3,3]    findWorstP[3,1]  5.0454525683963280e-03
    x[3,3]    findWorstP[3,2]  5.0454525683963280e-03
    x[3,3]    findWorstP[3,4]  5.0454525683963280e-03
    x[3,3]    findWorstP[4,3]  -1.7536409167493711e-01
    x[3,4]    allocateEach[4]  1
    x[3,4]    findWorstP[1,3]  -4.5109858059498341e-03
    x[3,4]    findWorstP[2,3]  -1.4650362103763503e-01
    x[3,4]    findWorstP[3,1]  2.7236744813187763e-01
    x[3,4]    findWorstP[3,2]  2.7236744813187763e-01
    x[3,4]    findWorstP[3,4]  2.7236744813187763e-01
    x[3,4]    findWorstP[4,3]  -1.0658480854894177e-01
    x[3,5]    allocateEach[5]  1
    x[3,5]    findWorstP[1,3]  -1.6210383044915419e-01
    x[3,5]    findWorstP[2,3]  -1.2442122759111955e-01
    x[3,5]    findWorstP[3,1]  1.0734635292070809e-01
    x[3,5]    findWorstP[3,2]  1.0734635292070809e-01
    x[3,5]    findWorstP[3,4]  1.0734635292070809e-01
    x[3,5]    findWorstP[4,3]  -1.0713873566136589e-01
    x[3,6]    allocateEach[6]  1
    x[3,6]    findWorstP[1,3]  -1.8878086719813339e-01
    x[3,6]    findWorstP[2,3]  -9.5710158692469030e-02
    x[3,6]    findWorstP[3,1]  9.4384759253620977e-03
    x[3,6]    findWorstP[3,2]  9.4384759253620977e-03
    x[3,6]    findWorstP[3,4]  9.4384759253620977e-03
    x[3,6]    findWorstP[4,3]  -1.7557181434209618e-01
    x[3,7]    allocateEach[7]  1
    x[3,7]    findWorstP[1,3]  -1.2755201244409878e-01
    x[3,7]    findWorstP[2,3]  -1.8570184811429022e-01
    x[3,7]    findWorstP[3,1]  1.4766647818711670e-01
    x[3,7]    findWorstP[3,2]  1.4766647818711670e-01
    x[3,7]    findWorstP[3,4]  1.4766647818711670e-01
    x[3,7]    findWorstP[4,3]  -9.3405959332517829e-02
    x[4,1]    allocateEach[1]  1
    x[4,1]    findWorstP[1,4]  -1.8143107135912892e-01
    x[4,1]    findWorstP[2,4]  -1.5774268866991173e-01
    x[4,1]    findWorstP[3,4]  -2.5083728415466916e-01
    x[4,1]    findWorstP[4,1]  2.5434486578807675e-02
    x[4,1]    findWorstP[4,2]  2.5434486578807675e-02
    x[4,1]    findWorstP[4,3]  2.5434486578807675e-02
    x[4,2]    allocateEach[2]  1
    x[4,2]    findWorstP[1,4]  -7.6745090414155157e-02
    x[4,2]    findWorstP[2,4]  -6.1438917250385840e-02
    x[4,2]    findWorstP[3,4]  -3.3317385063720582e-02
    x[4,2]    findWorstP[4,1]  0.224178918457313
    x[4,2]    findWorstP[4,2]  0.224178918457313
    x[4,2]    findWorstP[4,3]  0.224178918457313
    x[4,3]    allocateEach[3]  1
    x[4,3]    findWorstP[1,4]  -1.8110052498541707e-01
    x[4,3]    findWorstP[2,4]  -1.4933317503660612e-01
    x[4,3]    findWorstP[3,4]  -5.0454525683963280e-03
    x[4,3]    findWorstP[4,1]  1.7536409167493711e-01
    x[4,3]    findWorstP[4,2]  1.7536409167493711e-01
    x[4,3]    findWorstP[4,3]  1.7536409167493711e-01
    x[4,4]    allocateEach[4]  1
    x[4,4]    findWorstP[1,4]  -4.5109858059498341e-03
    x[4,4]    findWorstP[2,4]  -1.4650362103763503e-01
    x[4,4]    findWorstP[3,4]  -2.7236744813187763e-01
    x[4,4]    findWorstP[4,1]  1.0658480854894177e-01
    x[4,4]    findWorstP[4,2]  1.0658480854894177e-01
    x[4,4]    findWorstP[4,3]  1.0658480854894177e-01
    x[4,5]    allocateEach[5]  1
    x[4,5]    findWorstP[1,4]  -1.6210383044915419e-01
    x[4,5]    findWorstP[2,4]  -1.2442122759111955e-01
    x[4,5]    findWorstP[3,4]  -1.0734635292070809e-01
    x[4,5]    findWorstP[4,1]  1.0713873566136589e-01
    x[4,5]    findWorstP[4,2]  1.0713873566136589e-01
    x[4,5]    findWorstP[4,3]  1.0713873566136589e-01
    x[4,6]    allocateEach[6]  1
    x[4,6]    findWorstP[1,4]  -1.8878086719813339e-01
    x[4,6]    findWorstP[2,4]  -9.5710158692469030e-02
    x[4,6]    findWorstP[3,4]  -9.4384759253620977e-03
    x[4,6]    findWorstP[4,1]  1.7557181434209618e-01
    x[4,6]    findWorstP[4,2]  1.7557181434209618e-01
    x[4,6]    findWorstP[4,3]  1.7557181434209618e-01
    x[4,7]    allocateEach[7]  1
    x[4,7]    findWorstP[1,4]  -1.2755201244409878e-01
    x[4,7]    findWorstP[2,4]  -1.8570184811429022e-01
    x[4,7]    findWorstP[3,4]  -1.4766647818711670e-01
    x[4,7]    findWorstP[4,1]  9.3405959332517829e-02
    x[4,7]    findWorstP[4,2]  9.3405959332517829e-02
    x[4,7]    findWorstP[4,3]  9.3405959332517829e-02
    MARKER    'MARKER'                 'INTEND'
RHS
    RHS1      allocateEach[1]  1
    RHS1      allocateEach[2]  1
    RHS1      allocateEach[3]  1
    RHS1      allocateEach[4]  1
    RHS1      allocateEach[5]  1
    RHS1      allocateEach[6]  1
    RHS1      allocateEach[7]  1
    RHS1      allocateAllCash  1
BOUNDS
 UP BND1      z         1
 MI BND1      cashProportion[1]
 UP BND1      cashProportion[1]  1
 MI BND1      cashProportion[2]
 UP BND1      cashProportion[2]  1
 MI BND1      cashProportion[3]
 UP BND1      cashProportion[3]  1
 MI BND1      cashProportion[4]
 UP BND1      cashProportion[4]  1
 BV BND1      x[1,1]  
 BV BND1      x[1,2]  
 BV BND1      x[1,3]  
 BV BND1      x[1,4]  
 BV BND1      x[1,5]  
 BV BND1      x[1,6]  
 BV BND1      x[1,7]  
 BV BND1      x[2,1]  
 BV BND1      x[2,2]  
 BV BND1      x[2,3]  
 BV BND1      x[2,4]  
 BV BND1      x[2,5]  
 BV BND1      x[2,6]  
 BV BND1      x[2,7]  
 BV BND1      x[3,1]  
 BV BND1      x[3,2]  
 BV BND1      x[3,3]  
 BV BND1      x[3,4]  
 BV BND1      x[3,5]  
 BV BND1      x[3,6]  
 BV BND1      x[3,7]  
 BV BND1      x[4,1]  
 BV BND1      x[4,2]  
 BV BND1      x[4,3]  
 BV BND1      x[4,4]  
 BV BND1      x[4,5]  
 BV BND1      x[4,6]  
 BV BND1      x[4,7]  
ENDATA
